#definition

# set
set V := C1 C2 C3 C4 C5 ; 	# customer set
set F := F6 F7 F6_1 F6_2 F7_1 F7_2 ;#recharging & battery swapping station
set D0 :=N0;
set Dσ :=Nσ;


# param
param CV := 200;    		# ECV fixed cost(Topic Given)
param C := 200;   		# ECV max load
param Q := 77.75; 		# ECV/BSV battery level
param h := 1;     		# ECV consumption

param CB := 267;    		# BSV fixed cost(Topic Given)
param Qplun := 5;       # BSV max load(battery)
param hplun := 1;     	# BSV consumption
param W :=155.50;		# BSV battery level

param Ct := 10;    		# travel cost
param Cr := 100;    	# recharging cost
param lamda := 0.00;	# battery swap time
param Cb ;  	    # battery swap cost(BSS/BSV)
param n :=5;	   		# number of customers
param g :=10.41 ;     	# the recharging rate of ECV 



# customer demend
param m :=
N0 0
C1 10
C2 20
C3 10
C4 40
C5 10
F6 0
F7 0
F6_1 0
F6_2 0
F7_1 0
F7_2 0
Nσ 0;

param e :=
N0 0
C1 0
C2 0
C3 76
C4 0
C5 0
F6 0
F7 0
F6_1 0
F6_2 0
F7_1 0
F7_2 0
Nσ 0;

param l :=
N0 1236
C1 1136
C2 1115
C3 129
C4 1111
C5 1131
F6 1236
F7 1236
F6_1 1236
F6_2 1236
F7_1 1236
F7_2 1236
Nσ 1236;

param s :=
N0 0
C1 90
C2 90
C3 90
C4 90
C5 90
F6 0
F7 0
F6_1 0
F6_2 0
F7_1 0
F7_2 0
Nσ 0;

param d : N0 C1 C2 C3 C4 C5 F6 F7 F6_1 F6_2 F7_1 F7_2 Nσ :=
N0 0.0000 10.0000 30.8058 12.8062 35.0000 15.0000 0.0000 24.0208 0.0000 0.0000 24.0208 24.0208 0.0000
C1 10.0000 0.0000 37.5366 20.5913 36.4005 5.0000 10.0000 25.6320 10.0000 10.0000 25.6320 25.6320 10.0000
C2 30.8058 37.5366 0.0000 36.4005 62.6418 41.4005 30.8058 52.5547 30.8058 30.8058 52.5547 52.5547 30.8058
C3 12.8062 20.5913 36.4005 0.0000 26.2488 25.0799 12.8062 16.6433 12.8062 12.8062 16.6433 16.6433 12.8062
C4 35.0000 36.4005 62.6418 26.2488 0.0000 38.0789 35.0000 11.0454 35.0000 35.0000 11.0454 11.0454 35.0000
C5 15.0000 5.0000 41.4005 25.0799 38.0789 0.0000 15.0000 27.7849 15.0000 15.0000 27.7849 27.7849 15.0000
F6 0.0000 10.0000 30.8058 12.8062 35.0000 15.0000 0.0000 24.0208 0.0000 0.0000 24.0208 24.0208 0.0000
F7 24.0208 25.6320 52.5547 16.6433 11.0454 27.7849 24.0208 0.0000 24.0208 24.0208 0.0000 0.0000 24.0208
F6_1 0.0000 10.0000 30.8058 12.8062 35.0000 15.0000 0.0000 24.0208 0.0000 0.0000 24.0208 24.0208 0.0000
F6_2 0.0000 10.0000 30.8058 12.8062 35.0000 15.0000 0.0000 24.0208 0.0000 0.0000 24.0208 24.0208 0.0000
F7_1 24.0208 25.6320 52.5547 16.6433 11.0454 27.7849 24.0208 0.0000 24.0208 24.0208 0.0000 0.0000 24.0208
F7_2 24.0208 25.6320 52.5547 16.6433 11.0454 27.7849 24.0208 0.0000 24.0208 24.0208 0.0000 0.0000 24.0208
Nσ 0.0000 10.0000 30.8058 12.8062 35.0000 15.0000 0.0000 24.0208 0.0000 0.0000 24.0208 24.0208 0.0000
;

param t : N0 C1 C2 C3 C4 C5 F6 F7 F6_1 F6_2 F7_1 F7_2 Nσ :=
N0 0.0000 10.0000 30.8058 12.8062 35.0000 15.0000 0.0000 24.0208 0.0000 0.0000 24.0208 24.0208 0.0000
C1 10.0000 0.0000 37.5366 20.5913 36.4005 5.0000 10.0000 25.6320 10.0000 10.0000 25.6320 25.6320 10.0000
C2 30.8058 37.5366 0.0000 36.4005 62.6418 41.4005 30.8058 52.5547 30.8058 30.8058 52.5547 52.5547 30.8058
C3 12.8062 20.5913 36.4005 0.0000 26.2488 25.0799 12.8062 16.6433 12.8062 12.8062 16.6433 16.6433 12.8062
C4 35.0000 36.4005 62.6418 26.2488 0.0000 38.0789 35.0000 11.0454 35.0000 35.0000 11.0454 11.0454 35.0000
C5 15.0000 5.0000 41.4005 25.0799 38.0789 0.0000 15.0000 27.7849 15.0000 15.0000 27.7849 27.7849 15.0000
F6 0.0000 10.0000 30.8058 12.8062 35.0000 15.0000 0.0000 24.0208 0.0000 0.0000 24.0208 24.0208 0.0000
F7 24.0208 25.6320 52.5547 16.6433 11.0454 27.7849 24.0208 0.0000 24.0208 24.0208 0.0000 0.0000 24.0208
F6_1 0.0000 10.0000 30.8058 12.8062 35.0000 15.0000 0.0000 24.0208 0.0000 0.0000 24.0208 24.0208 0.0000
F6_2 0.0000 10.0000 30.8058 12.8062 35.0000 15.0000 0.0000 24.0208 0.0000 0.0000 24.0208 24.0208 0.0000
F7_1 24.0208 25.6320 52.5547 16.6433 11.0454 27.7849 24.0208 0.0000 24.0208 24.0208 0.0000 0.0000 24.0208
F7_2 24.0208 25.6320 52.5547 16.6433 11.0454 27.7849 24.0208 0.0000 24.0208 24.0208 0.0000 0.0000 24.0208
Nσ 0.0000 10.0000 30.8058 12.8062 35.0000 15.0000 0.0000 24.0208 0.0000 0.0000 24.0208 24.0208 0.0000
;